c description: Random 3-CNF over 15 variables and 45 clauses
c generator: CNFgen (0.9.0)
c copyright: (C) 2012-2020 Massimo Lauria <massimo.lauria@uniroma1.it>
c url: https://massimolauria.net/cnfgen
c
p cnf 15 45
9 10 15 0
-8 -9 15 0
-6 10 13 0
2 -11 -14 0
2 6 15 0
9 14 -15 0
-1 6 11 0
9 -11 15 0
-3 7 11 0
-2 -7 8 0
-1 -4 -15 0
6 -7 10 0
-3 -11 -14 0
5 7 -9 0
-2 3 -6 0
-4 7 -10 0
2 3 7 0
6 11 -12 0
-4 8 -10 0
-6 10 14 0
2 6 -9 0
-9 11 -14 0
-3 -8 13 0
-3 4 12 0
2 -7 -8 0
-4 7 13 0
-4 -8 -15 0
5 -12 13 0
4 -5 14 0
12 -13 -14 0
-6 11 -15 0
8 -12 -14 0
-1 5 10 0
-10 -11 -13 0
7 9 -15 0
2 -6 12 0
-7 8 -10 0
-9 -10 -15 0
3 6 -8 0
6 -7 -9 0
-7 -8 13 0
-11 13 15 0
-5 -7 15 0
3 14 15 0
8 -11 -14 0